     Program PWSCF v.6.4.1 starts on 15May2022 at 13:55: 5

     K-points division:     npool     =       2
     R & G space division:  proc/nbgrp/npool/nimage =       2
     Reading input from /DATA/disk3/cloud/Code/python/qeeos/examples/al_003/out/ec_rfkj/ec_rfkj_d1_0003.in
Warning: card &CELL ignored
Warning: card CELL_DYNAMICS = 'BFGS', ignored
Warning: card CELL_FACTOR = 2.0, ignored
Warning: card PRESS = 0.0, ignored
Warning: card / ignored

     Current dimensions of program PWSCF are:
     Max number of different atomic species (ntypx) = 10
     Max number of k-points (npk) =  40000
     Max angular momentum in pseudopotentials (lmaxx) =  3
               file Al.pbe-nl-kjpaw_psl.1.0.0.UPF: wavefunction(s)  3S 3P renormalized

     Subspace diagonalization in iterative solution of the eigenvalue problem:
     a serial algorithm will be used

     Found symmetry operation: I + ( -0.5000 -0.5000  0.0000)
     This is a supercell, fractional translations are disabled
     Message from routine setup:
     DEPRECATED: symmetry with ibrav=0, use correct ibrav instead

     bravais-lattice index     =            0
     lattice parameter (alat)  =       7.6423  a.u.
     unit-cell volume          =     447.6294 (a.u.)^3
     number of atoms/cell      =            4
     number of atomic types    =            1
     number of electrons       =        12.00
     number of Kohn-Sham states=           10
     kinetic-energy cutoff     =      50.0000  Ry
     charge density cutoff     =     200.0000  Ry
     convergence threshold     =      1.0E-06
     mixing beta               =       0.1000
     number of iterations used =           10  plain     mixing
     Exchange-correlation      = SLA PW PBX PBC ( 1  4  3  4 0 0)
     nstep                     =           50

     celldm(1)=   7.642343  celldm(2)=   0.000000  celldm(3)=   0.000000
     celldm(4)=   0.000000  celldm(5)=   0.000000  celldm(6)=   0.000000

     crystal axes: (cart. coord. in units of alat)
               a(1) = (   1.002857   0.000000   0.000000 )
               a(2) = (   0.000000   1.000000   0.000000 )
               a(3) = (   0.000000   0.000000   1.000000 )

     reciprocal axes: (cart. coord. in units 2 pi/alat)
               b(1) = (  0.997151  0.000000  0.000000 )
               b(2) = (  0.000000  1.000000  0.000000 )
               b(3) = (  0.000000  0.000000  1.000000 )

     PseudoPot. # 1 for Al read from file:
     /opt/pp/Al.pbe-nl-kjpaw_psl.1.0.0.UPF
     MD5 check sum: 1b67f78b73fe58c7924490f171ce8a1e
     Pseudo is Projector augmented-wave + core cor, Zval =  3.0
     Generated using "atomic" code by A. Dal Corso v.6.3
     Shape of augmentation charge: PSQ
     Using radial grid of 1135 points,  4 beta functions with:
                l(1) =   0
                l(2) =   0
                l(3) =   1
                l(4) =   1
     Q(r) pseudized with 0 coefficients

     atomic species   valence    mass     pseudopotential
        Al             3.00    26.98200     Al( 1.00)

     16 Sym. Ops., with inversion, found

   Cartesian axes

     site n.     atom                  positions (alat units)
         1           Al  tau(   1) = (   0.0000000   0.0000000   0.0000000  )
         2           Al  tau(   2) = (   0.5014286   0.5000000   0.0000000  )
         3           Al  tau(   3) = (   0.5014286   0.0000000   0.5000000  )
         4           Al  tau(   4) = (   0.0000000   0.5000000   0.5000000  )

     number of k points=     6  Marzari-Vanderbilt smearing, width (Ry)=  0.0100
                       cart. coord. in units 2pi/alat
        k(    1) = (   0.1246439   0.1250000   0.1250000), wk =   0.2500000
        k(    2) = (   0.1246439   0.1250000   0.3750000), wk =   0.5000000
        k(    3) = (   0.1246439   0.3750000   0.3750000), wk =   0.2500000
        k(    4) = (   0.3739316   0.1250000   0.1250000), wk =   0.2500000
        k(    5) = (   0.3739316   0.1250000   0.3750000), wk =   0.5000000
        k(    6) = (   0.3739316   0.3750000   0.3750000), wk =   0.2500000

     Initial potential from superposition of free atoms

     starting charge   11.99084, renormalised to   12.00000
     Starting wfcs are   16 randomized atomic wfcs
     Checking if some PAW data can be deallocated...

     Self-consistent Calculation

     iteration #  1     ecut=    50.00 Ry     beta= 0.10
     Davidson diagonalization with overlap
     ethr =  1.00E-02,  avg # of iterations =  3.2

     Threshold (ethr) on eigenvalues was too large:
     Diagonalizing with lowered threshold

     Davidson diagonalization with overlap
     ethr =  1.98E-04,  avg # of iterations =  3.0

     total energy              =    -158.00031118 Ry
     Harris-Foulkes estimate   =    -158.00144796 Ry
     estimated scf accuracy    <       0.02291647 Ry

[...]

     total energy              =    -157.99587242 Ry
     Harris-Foulkes estimate   =    -157.99587769 Ry
     estimated scf accuracy    <       0.00001092 Ry

     iteration #  7     ecut=    50.00 Ry     beta= 0.10
     Davidson diagonalization with overlap
     ethr =  9.10E-08,  avg # of iterations =  2.0

     End of self-consistent calculation

          k = 0.1246 0.1250 0.1250 (  2671 PWs)   bands (ev):

    -2.8270   3.7136   3.7491   3.7492   8.1851   8.2476   8.2478  10.0501
    10.0503  10.0832

[...]

          k = 0.3739 0.3750 0.3750 (  2664 PWs)   bands (ev):

     0.5134   2.6871   2.6992   2.6993   4.8592   4.8596   4.8714   6.9910
    15.3699  15.4510

     the Fermi energy is     8.0096 ev

!    total energy              =    -157.99587342 Ry
     Harris-Foulkes estimate   =    -157.99587395 Ry
     estimated scf accuracy    <       0.00000084 Ry

     total all-electron energy =     -1942.566996 Ry

     The total energy is the sum of the following terms:

     one-electron contribution =      12.61977895 Ry
     hartree contribution      =       0.02664505 Ry
     xc contribution           =     -10.35437765 Ry
     ewald contribution        =     -21.57690677 Ry
     one-center paw contrib.   =    -138.70853892 Ry
     smearing contrib. (-TS)   =      -0.00247408 Ry

     convergence has been achieved in   7 iterations

     Forces acting on atoms (cartesian axes, Ry/au):

     atom    1 type  1   force =     0.00000000    0.00000000    0.00000000
     atom    2 type  1   force =     0.00000000    0.00000000    0.00000000
     atom    3 type  1   force =     0.00000000    0.00000000    0.00000000
     atom    4 type  1   force =     0.00000000    0.00000000    0.00000000

     Total force =     0.000000     Total SCF correction =     0.000000

     Computing stress (Cartesian axis) and pressure

          total   stress  (Ry/bohr**3)                   (kbar)     P=   -2.17
   0.00001518   0.00000000   0.00000000          2.23      0.00      0.00
   0.00000000  -0.00002967   0.00000000          0.00     -4.36      0.00
   0.00000000   0.00000000  -0.00002967          0.00      0.00     -4.36

     BFGS Geometry Optimization

     bfgs converged in   1 scf cycles and   0 bfgs steps
     (criteria: energy <  1.0E-04 Ry, force <  1.0E-03 Ry/Bohr)

     End of BFGS Geometry Optimization

     Final energy   =    -157.9958734188 Ry
Begin final coordinates

ATOMIC_POSITIONS (crystal)
Al       0.000000000   0.000000000   0.000000000
Al       0.500000000   0.500000000   0.000000000
Al       0.500000000   0.000000000   0.500000000
Al       0.000000000   0.500000000   0.500000000
End final coordinates

     Writing output data file hOiElMWOcHOTtMIN.save/

     General routines

     Parallel routines

   This run was terminated on:  13:55: 7  15May2022

   JOB DONE.