     Program PWSCF v.6.4.1 starts on 15May2022 at 14: 5: 4

     K-points division:     npool     =       2
     R & G space division:  proc/nbgrp/npool/nimage =       2
     Reading input from /DATA/disk3/cloud/Code/python/qeeos/examples/al_003/out/eos_bm/eos_bm_0001.in
Warning: card &IONS ignored
Warning: card ION_DYNAMICS = 'BFGS', ignored
Warning: card / ignored
Warning: card &CELL ignored
Warning: card CELL_DYNAMICS = 'BFGS', ignored
Warning: card CELL_FACTOR = 2.0, ignored
Warning: card PRESS = 0.0, ignored
Warning: card / ignored

     Current dimensions of program PWSCF are:
     Max number of different atomic species (ntypx) = 10
     Max number of k-points (npk) =  40000
     Max angular momentum in pseudopotentials (lmaxx) =  3
               file Al.pbe-nl-kjpaw_psl.1.0.0.UPF: wavefunction(s)  3S 3P renormalized

     Subspace diagonalization in iterative solution of the eigenvalue problem:
     a serial algorithm will be used

     Found symmetry operation: I + ( -0.5000 -0.5000  0.0000)
     This is a supercell, fractional translations are disabled
     Message from routine setup:
     DEPRECATED: symmetry with ibrav=0, use correct ibrav instead

     bravais-lattice index     =            0
     lattice parameter (alat)  =       7.6423  a.u.
     unit-cell volume          =     433.0969 (a.u.)^3
     number of atoms/cell      =            4
     number of atomic types    =            1
     number of electrons       =        12.00
     number of Kohn-Sham states=           10
     kinetic-energy cutoff     =      50.0000  Ry
     charge density cutoff     =     200.0000  Ry
     convergence threshold     =      1.0E-06
     mixing beta               =       0.1000
     number of iterations used =           10  plain     mixing
     Exchange-correlation      = SLA PW PBX PBC ( 1  4  3  4 0 0)

     celldm(1)=   7.642343  celldm(2)=   0.000000  celldm(3)=   0.000000
     celldm(4)=   0.000000  celldm(5)=   0.000000  celldm(6)=   0.000000

     crystal axes: (cart. coord. in units of alat)
               a(1) = (   0.990000   0.000000   0.000000 )
               a(2) = (   0.000000   0.990000   0.000000 )
               a(3) = (   0.000000   0.000000   0.990000 )

     reciprocal axes: (cart. coord. in units 2 pi/alat)
               b(1) = (  1.010101  0.000000  0.000000 )
               b(2) = (  0.000000  1.010101  0.000000 )
               b(3) = (  0.000000  0.000000  1.010101 )

     PseudoPot. # 1 for Al read from file:
     /opt/pp/Al.pbe-nl-kjpaw_psl.1.0.0.UPF
     MD5 check sum: 1b67f78b73fe58c7924490f171ce8a1e
     Pseudo is Projector augmented-wave + core cor, Zval =  3.0
     Generated using "atomic" code by A. Dal Corso v.6.3
     Shape of augmentation charge: PSQ
     Using radial grid of 1135 points,  4 beta functions with:
                l(1) =   0
                l(2) =   0
                l(3) =   1
                l(4) =   1
     Q(r) pseudized with 0 coefficients

     atomic species   valence    mass     pseudopotential
        Al             3.00    26.98200     Al( 1.00)

     48 Sym. Ops., with inversion, found

   Cartesian axes

     site n.     atom                  positions (alat units)
         1           Al  tau(   1) = (   0.0000000   0.0000000   0.0000000  )
         2           Al  tau(   2) = (   0.4950000   0.4950000   0.0000000  )
         3           Al  tau(   3) = (   0.4950000   0.0000000   0.4950000  )
         4           Al  tau(   4) = (   0.0000000   0.4950000   0.4950000  )

     number of k points=     4  Marzari-Vanderbilt smearing, width (Ry)=  0.0100
                       cart. coord. in units 2pi/alat
        k(    1) = (   0.1262626   0.1262626   0.1262626), wk =   0.2500000
        k(    2) = (   0.1262626   0.1262626   0.3787879), wk =   0.7500000
        k(    3) = (   0.1262626   0.3787879   0.3787879), wk =   0.7500000
        k(    4) = (   0.3787879   0.3787879   0.3787879), wk =   0.2500000

     Initial potential from superposition of free atoms

     starting charge   11.99084, renormalised to   12.00000
     Starting wfcs are   16 randomized atomic wfcs
     Checking if some PAW data can be deallocated...

     Self-consistent Calculation

     iteration #  1     ecut=    50.00 Ry     beta= 0.10
     Davidson diagonalization with overlap
     ethr =  1.00E-02,  avg # of iterations =  3.2

     Threshold (ethr) on eigenvalues was too large:
     Diagonalizing with lowered threshold

     Davidson diagonalization with overlap
     ethr =  1.97E-04,  avg # of iterations =  3.0

     total energy              =    -157.99912403 Ry
     Harris-Foulkes estimate   =    -158.00024261 Ry
     estimated scf accuracy    <       0.02276364 Ry

[...]

     total energy              =    -157.99468877 Ry
     Harris-Foulkes estimate   =    -157.99476171 Ry
     estimated scf accuracy    <       0.00016439 Ry

     iteration #  6     ecut=    50.00 Ry     beta= 0.10
     Davidson diagonalization with overlap
     ethr =  2.63E-07,  avg # of iterations =  2.0

     End of self-consistent calculation

          k = 0.1263 0.1263 0.1263 (  2593 PWs)   bands (ev):

    -2.7037   3.9931   3.9931   3.9932   8.5791   8.5791   8.5792  10.4524
    10.4524  10.4525

[...]

          k = 0.3788 0.3788 0.3788 (  2575 PWs)   bands (ev):

     0.7077   2.9311   2.9311   2.9311   5.1529   5.1529   5.1531   7.3199
    15.9296  15.9296

     the Fermi energy is     8.3526 ev

!    total energy              =    -157.99469300 Ry
     Harris-Foulkes estimate   =    -157.99469335 Ry
     estimated scf accuracy    <       0.00000081 Ry

     total all-electron energy =     -1942.565815 Ry

     The total energy is the sum of the following terms:

     one-electron contribution =      12.94265698 Ry
     hartree contribution      =       0.02767817 Ry
     xc contribution           =     -10.42590456 Ry
     ewald contribution        =     -21.81559537 Ry
     one-center paw contrib.   =    -138.72103937 Ry
     smearing contrib. (-TS)   =      -0.00248885 Ry

     convergence has been achieved in   6 iterations

     Forces acting on atoms (cartesian axes, Ry/au):

     atom    1 type  1   force =     0.00000000    0.00000000    0.00000000
     atom    2 type  1   force =     0.00000000    0.00000000    0.00000000
     atom    3 type  1   force =     0.00000000    0.00000000    0.00000000
     atom    4 type  1   force =     0.00000000    0.00000000    0.00000000

     Total force =     0.000000     Total SCF correction =     0.000000

     Computing stress (Cartesian axis) and pressure

          total   stress  (Ry/bohr**3)                   (kbar)     P=   26.66
   0.00018121   0.00000000   0.00000000         26.66      0.00      0.00
   0.00000000   0.00018121   0.00000000          0.00     26.66      0.00
   0.00000000   0.00000000   0.00018121          0.00      0.00     26.66

     Writing output data file qKTFFsYtuSQMAssT.save/

     General routines

     Parallel routines

   This run was terminated on:  14: 5: 6  15May2022

   JOB DONE.