     Program PWSCF v.6.4.1 starts on 15May2022 at 13:37:42

     K-points division:     npool     =       2
     R & G space division:  proc/nbgrp/npool/nimage =       2
     Reading input from /DATA/disk3/cloud/Code/python/qeeos/examples/al_003/out/relax/relax.in

     Current dimensions of program PWSCF are:
     Max number of different atomic species (ntypx) = 10
     Max number of k-points (npk) =  40000
     Max angular momentum in pseudopotentials (lmaxx) =  3
               file Al.pbe-nl-kjpaw_psl.1.0.0.UPF: wavefunction(s)  3S 3P renormalized

     Subspace diagonalization in iterative solution of the eigenvalue problem:
     a serial algorithm will be used

     Found symmetry operation: I + ( -0.5000 -0.5000  0.0000)
     This is a supercell, fractional translations are disabled
     Message from routine setup:
     DEPRECATED: symmetry with ibrav=0, use correct ibrav instead

     bravais-lattice index     =            0
     lattice parameter (alat)  =       7.4655  a.u.
     unit-cell volume          =     416.0799 (a.u.)^3
     number of atoms/cell      =            4
     number of atomic types    =            1
     number of electrons       =        12.00
     number of Kohn-Sham states=           10
     kinetic-energy cutoff     =      50.0000  Ry
     charge density cutoff     =     200.0000  Ry
     convergence threshold     =      1.0E-06
     mixing beta               =       0.1000
     number of iterations used =           10  plain     mixing
     Exchange-correlation      = SLA PW PBX PBC ( 1  4  3  4 0 0)
     nstep                     =           50

     celldm(1)=   7.465500  celldm(2)=   0.000000  celldm(3)=   0.000000
     celldm(4)=   0.000000  celldm(5)=   0.000000  celldm(6)=   0.000000

     crystal axes: (cart. coord. in units of alat)
               a(1) = (   1.000000   0.000000   0.000000 )
               a(2) = (   0.000000   1.000000   0.000000 )
               a(3) = (   0.000000   0.000000   1.000000 )

     reciprocal axes: (cart. coord. in units 2 pi/alat)
               b(1) = (  1.000000  0.000000  0.000000 )
               b(2) = (  0.000000  1.000000  0.000000 )
               b(3) = (  0.000000  0.000000  1.000000 )

     PseudoPot. # 1 for Al read from file:
     /opt/pp/Al.pbe-nl-kjpaw_psl.1.0.0.UPF
     MD5 check sum: 1b67f78b73fe58c7924490f171ce8a1e
     Pseudo is Projector augmented-wave + core cor, Zval =  3.0
     Generated using "atomic" code by A. Dal Corso v.6.3
     Shape of augmentation charge: PSQ
     Using radial grid of 1135 points,  4 beta functions with:
                l(1) =   0
                l(2) =   0
                l(3) =   1
                l(4) =   1
     Q(r) pseudized with 0 coefficients

     atomic species   valence    mass     pseudopotential
        Al             3.00    26.98200     Al( 1.00)

     48 Sym. Ops., with inversion, found

   Cartesian axes

     site n.     atom                  positions (alat units)
         1           Al  tau(   1) = (   0.0000000   0.0000000   0.0000000  )
         2           Al  tau(   2) = (   0.5000000   0.5000000   0.0000000  )
         3           Al  tau(   3) = (   0.5000000   0.0000000   0.5000000  )
         4           Al  tau(   4) = (   0.0000000   0.5000000   0.5000000  )

     number of k points=     4  Marzari-Vanderbilt smearing, width (Ry)=  0.0100
                       cart. coord. in units 2pi/alat
        k(    1) = (   0.1250000   0.1250000   0.1250000), wk =   0.2500000
        k(    2) = (   0.1250000   0.1250000   0.3750000), wk =   0.7500000
        k(    3) = (   0.1250000   0.3750000   0.3750000), wk =   0.7500000
        k(    4) = (   0.3750000   0.3750000   0.3750000), wk =   0.2500000

     Initial potential from superposition of free atoms

     starting charge   11.99084, renormalised to   12.00000
     Starting wfcs are   16 randomized atomic wfcs
     Checking if some PAW data can be deallocated...

     Self-consistent Calculation

     iteration #  1     ecut=    50.00 Ry     beta= 0.10
     Davidson diagonalization with overlap
     ethr =  1.00E-02,  avg # of iterations =  3.2

     Threshold (ethr) on eigenvalues was too large:
     Diagonalizing with lowered threshold

     Davidson diagonalization with overlap
     ethr =  1.94E-04,  avg # of iterations =  3.0

     total energy              =    -157.99379753 Ry
     Harris-Foulkes estimate   =    -157.99490557 Ry
     estimated scf accuracy    <       0.02256114 Ry

[...]

     End of self-consistent calculation

          k = 0.1250 0.1250 0.1250 (  2496 PWs)   bands (ev):

    -2.5467   4.3139   4.3139   4.3140   9.0141   9.0141   9.0142  10.9425
    10.9425  10.9425

[...]

     the Fermi energy is     8.7810 ev

!    total energy              =    -157.98937175 Ry
     Harris-Foulkes estimate   =    -157.98937197 Ry
     estimated scf accuracy    <       0.00000057 Ry

     total all-electron energy =     -1942.560494 Ry

     The total energy is the sum of the following terms:

     one-electron contribution =      13.34438058 Ry
     hartree contribution      =       0.02948339 Ry
     xc contribution           =     -10.51464938 Ry
     ewald contribution        =     -22.10903955 Ry
     one-center paw contrib.   =    -138.73706327 Ry
     smearing contrib. (-TS)   =      -0.00248352 Ry

     convergence has been achieved in   7 iterations

     Forces acting on atoms (cartesian axes, Ry/au):

     atom    1 type  1   force =     0.00000000    0.00000000    0.00000000
     atom    2 type  1   force =     0.00000000    0.00000000    0.00000000
     atom    3 type  1   force =     0.00000000    0.00000000    0.00000000
     atom    4 type  1   force =     0.00000000    0.00000000    0.00000000

     Total force =     0.000000     Total SCF correction =     0.000000

     Computing stress (Cartesian axis) and pressure

          total   stress  (Ry/bohr**3)                   (kbar)     P=   66.88
   0.00045464   0.00000000   0.00000000         66.88      0.00      0.00
   0.00000000   0.00045464   0.00000000          0.00     66.88      0.00
   0.00000000   0.00000000   0.00045464          0.00      0.00     66.88

     BFGS Geometry Optimization

     number of scf cycles    =   1
     number of bfgs steps    =   0

     enthalpy new            =    -157.9893717528 Ry

     new trust radius        =       0.0463687962 bohr
     new conv_thr            =       0.0000010000 Ry

     new unit-cell volume =    430.42922 a.u.^3 (    63.78303 Ang^3 )
     density =      2.80982 g/cm^3

CELL_PARAMETERS (alat=  7.46550000)
   1.011365996   0.000000000   0.000000000
   0.000000000   1.011365996   0.000000000
   0.000000000   0.000000000   1.011365996

ATOMIC_POSITIONS (crystal)
Al       0.000000000   0.000000000   0.000000000
Al       0.500000000   0.500000000   0.000000000
Al       0.500000000   0.000000000   0.500000000
Al       0.000000000   0.500000000   0.500000000

     Writing output data file GwNovLcYlDsHOpta.save/
     NEW-OLD atomic charge density approx. for the potential
     extrapolated charge   12.39974, renormalised to   12.00000

[...]

     enthalpy old            =    -157.9893717528 Ry
     enthalpy new            =    -157.9941578741 Ry

     CASE: enthalpy_new < enthalpy_old

[...]

     number of scf cycles    =   3
     number of bfgs steps    =   2

     enthalpy old            =    -157.9941578741 Ry
     enthalpy new            =    -157.9958358059 Ry

     CASE: enthalpy_new < enthalpy_old

     new trust radius        =       0.0053089768 bohr
     new conv_thr            =       0.0000000100 Ry

     new unit-cell volume =    446.35349 a.u.^3 (    66.14276 Ang^3 )
     density =      2.70957 g/cm^3

[...]

ATOMIC_POSITIONS (crystal)
Al       0.000000000   0.000000000   0.000000000
Al       0.500000000   0.500000000   0.000000000
Al       0.500000000   0.000000000   0.500000000
Al       0.000000000   0.500000000   0.500000000

     Writing output data file GwNovLcYlDsHOpta.save/
     NEW-OLD atomic charge density approx. for the potential
     extrapolated charge   12.04517, renormalised to   12.00000

[...]

     Threshold (ethr) on eigenvalues was too large:
     Diagonalizing with lowered threshold

     Davidson diagonalization with overlap
     ethr =  4.43E-09,  avg # of iterations =  3.2

[...]

     bfgs converged in   4 scf cycles and   3 bfgs steps
     (criteria: energy <  1.0E-04 Ry, force <  1.0E-03Ry/Bohr, cell <  5.0E-01kbar)

     End of BFGS Geometry Optimization

     Final enthalpy =    -157.9958557854 Ry
Begin final coordinates
     new unit-cell volume =    446.35349 a.u.^3 (    66.14276 Ang^3 )
     density =      2.70957 g/cm^3

CELL_PARAMETERS (alat=  7.46550000)
   1.023687531   0.000000000   0.000000000
   0.000000000   1.023687531   0.000000000
   0.000000000   0.000000000   1.023687531

ATOMIC_POSITIONS (crystal)
Al       0.000000000   0.000000000   0.000000000
Al       0.500000000   0.500000000   0.000000000
Al       0.500000000   0.000000000   0.500000000
Al       0.000000000   0.500000000   0.500000000
End final coordinates

     Writing output data file GwNovLcYlDsHOpta.save/

     A final scf calculation at the relaxed structure.
     The G-vectors are recalculated for the final unit cell
     Results may differ from those at the preceding step.

     bravais-lattice index     =            0
     lattice parameter (alat)  =       7.4655  a.u.
     unit-cell volume          =     446.3535 (a.u.)^3
     number of atoms/cell      =            4
     number of atomic types    =            1
     number of electrons       =        12.00
     number of Kohn-Sham states=           10
     kinetic-energy cutoff     =      50.0000  Ry
     charge density cutoff     =     200.0000  Ry
     convergence threshold     =      1.0E-08
     mixing beta               =       0.1000
     number of iterations used =           10  plain     mixing
     Exchange-correlation      = SLA PW PBX PBC ( 1  4  3  4 0 0)

     celldm(1)=   7.465500  celldm(2)=   0.000000  celldm(3)=   0.000000
     celldm(4)=   0.000000  celldm(5)=   0.000000  celldm(6)=   0.000000

     crystal axes: (cart. coord. in units of alat)
               a(1) = (   1.023688   0.000000   0.000000 )
               a(2) = (   0.000000   1.023688   0.000000 )
               a(3) = (   0.000000   0.000000   1.023688 )

     reciprocal axes: (cart. coord. in units 2 pi/alat)
               b(1) = (  0.976861  0.000000  0.000000 )
               b(2) = (  0.000000  0.976861  0.000000 )
               b(3) = (  0.000000  0.000000  0.976861 )

     PseudoPot. # 1 for Al read from file:
     /opt/pp/Al.pbe-nl-kjpaw_psl.1.0.0.UPF
     MD5 check sum: 1b67f78b73fe58c7924490f171ce8a1e
     Pseudo is Projector augmented-wave + core cor, Zval =  3.0
     Generated using "atomic" code by A. Dal Corso v.6.3
     Shape of augmentation charge: PSQ
     Using radial grid of 1135 points,  4 beta functions with:
                l(1) =   0
                l(2) =   0
                l(3) =   1
                l(4) =   1
     Q(r) pseudized with 0 coefficients

     atomic species   valence    mass     pseudopotential
        Al             3.00    26.98200     Al( 1.00)

     48 Sym. Ops., with inversion, found

   Cartesian axes

     site n.     atom                  positions (alat units)
         1           Al  tau(   1) = (   0.0000000   0.0000000   0.0000000  )
         2           Al  tau(   2) = (   0.5118438   0.5118438   0.0000000  )
         3           Al  tau(   3) = (   0.5118438   0.0000000   0.5118438  )
         4           Al  tau(   4) = (   0.0000000   0.5118438   0.5118438  )

     number of k points=     4  Marzari-Vanderbilt smearing, width (Ry)=  0.0100
                       cart. coord. in units 2pi/alat
        k(    1) = (   0.1221076   0.1221076   0.1221076), wk =   0.2500000
        k(    2) = (   0.1221076   0.1221076   0.3663227), wk =   0.7500000
        k(    3) = (   0.1221076   0.3663227   0.3663227), wk =   0.7500000
        k(    4) = (   0.3663227   0.3663227   0.3663227), wk =   0.2500000

     Initial potential from superposition of free atoms

     starting charge   11.99084, renormalised to   12.00000
     Starting wfcs are   16 randomized atomic wfcs
     Checking if some PAW data can be deallocated...

     Self-consistent Calculation

[...]

     total energy              =    -157.99586293 Ry
     Harris-Foulkes estimate   =    -157.99586295 Ry
     estimated scf accuracy    <       0.00000001 Ry

     iteration # 18     ecut=    50.00 Ry     beta= 0.10
     Davidson diagonalization with overlap
     ethr =  1.06E-10,  avg # of iterations =  2.0

     End of self-consistent calculation

[...]

          k = 0.3663 0.3663 0.3663 (  2662 PWs)   bands (ev):

     0.5299   2.7153   2.7153   2.7153   4.8879   4.8879   4.8879   7.0189
    15.4669  15.4669

     the Fermi energy is     8.0391 ev

!    total energy              =    -157.99586294 Ry
     Harris-Foulkes estimate   =    -157.99586293 Ry
     estimated scf accuracy    <          1.2E-09 Ry

     total all-electron energy =     -1942.566985 Ry

     The total energy is the sum of the following terms:

     one-electron contribution =      12.64752099 Ry
     hartree contribution      =       0.02672729 Ry
     xc contribution           =     -10.36054081 Ry
     ewald contribution        =     -21.59744931 Ry
     one-center paw contrib.   =    -138.70962369 Ry
     smearing contrib. (-TS)   =      -0.00249740 Ry

     convergence has been achieved in  18 iterations

     Forces acting on atoms (cartesian axes, Ry/au):

     atom    1 type  1   force =     0.00000000    0.00000000    0.00000000
     atom    2 type  1   force =     0.00000000    0.00000000    0.00000000
     atom    3 type  1   force =     0.00000000    0.00000000    0.00000000
     atom    4 type  1   force =     0.00000000    0.00000000    0.00000000

     Total force =     0.000000     Total SCF correction =     0.000000

     Computing stress (Cartesian axis) and pressure

          total   stress  (Ry/bohr**3)                   (kbar)     P=    0.21
   0.00000140   0.00000000   0.00000000          0.21      0.00      0.00
   0.00000000   0.00000140   0.00000000          0.00      0.21      0.00
   0.00000000   0.00000000   0.00000140          0.00      0.00      0.21

     Writing output data file GwNovLcYlDsHOpta.save/

     General routines

     Parallel routines

   This run was terminated on:  13:37:52  15May2022

   JOB DONE.