     Program PWSCF v.6.6 starts on 15May2022 at 18: 5: 7

     K-points division:     npool     =      18
     Fft bands division:     nmany     =       1
     Reading input from /rds/homes/b/bxp912/jobs/20220515_al_eos/out/relax/relax.in

     Current dimensions of program PWSCF are:
     Max number of different atomic species (ntypx) = 10
     Max number of k-points (npk) =  40000
     Max angular momentum in pseudopotentials (lmaxx) =  3
     Message from routine emend_upf/check:
     BEWARE !!! Possible out of bounds while fixing pseudo
     Message from routine emend_upf/check:
     BEWARE !!! Possible out of bounds while fixing pseudo
     Message from routine read_upf:
     Pseudo file Al.pbe-nl-kjpaw_psl.1.0.0.UPF has been fixed on the fly.
     To avoid this message in the future, permanently fix
     your pseudo files following these instructions:
     file Al.pbe-nl-kjpaw_psl.1.0.0.UPF: wavefunction(s)  3S 3P renormalized

     Subspace diagonalization in iterative solution of the eigenvalue problem:
     a serial algorithm will be used

     Found symmetry operation: I + ( -0.5000 -0.5000  0.0000)
     This is a supercell, fractional translations are disabled
     Message from routine setup:
     using ibrav=0 with symmetry is DISCOURAGED, use correct ibrav instead

     bravais-lattice index     =            0
     lattice parameter (alat)  =       7.4844  a.u.
     unit-cell volume          =     419.2480 (a.u.)^3
     number of atoms/cell      =            4
     number of atomic types    =            1
     number of electrons       =        12.00
     number of Kohn-Sham states=           10
     kinetic-energy cutoff     =      50.0000  Ry
     charge density cutoff     =     200.0000  Ry
     convergence threshold     =      1.0E-06
     mixing beta               =       0.1000
     number of iterations used =           10  plain     mixing
     Exchange-correlation= SLA PW PBX PBC
                           (   1   4   3   4   0   0   0)
     nstep                     =           50

     celldm(1)=   7.484400  celldm(2)=   0.000000  celldm(3)=   0.000000
     celldm(4)=   0.000000  celldm(5)=   0.000000  celldm(6)=   0.000000

     crystal axes: (cart. coord. in units of alat)
               a(1) = (   1.000000   0.000000   0.000000 )
               a(2) = (   0.000000   1.000000   0.000000 )
               a(3) = (   0.000000   0.000000   1.000000 )

     reciprocal axes: (cart. coord. in units 2 pi/alat)
               b(1) = (  1.000000  0.000000  0.000000 )
               b(2) = (  0.000000  1.000000  0.000000 )
               b(3) = (  0.000000  0.000000  1.000000 )

     PseudoPot. # 1 for Al read from file:
     /rds/homes/b/bxp912/pp/Al.pbe-nl-kjpaw_psl.1.0.0.UPF
     MD5 check sum: 339dbea23cf3ab9a065ad45c0f9085d7
     Pseudo is Projector augmented-wave + core cor, Zval =  3.0
     Generated using "atomic" code by A. Dal Corso v.5.1
     Shape of augmentation charge: PSQ
     Using radial grid of 1135 points,  4 beta functions with:
                l(1) =   0
                l(2) =   0
                l(3) =   1
                l(4) =   1
     Q(r) pseudized with 0 coefficients

     atomic species   valence    mass     pseudopotential
        Al             3.00    26.98200     Al( 1.00)

     48 Sym. Ops., with inversion, found

   Cartesian axes

     site n.     atom                  positions (alat units)
         1           Al  tau(   1) = (   0.0000000   0.0000000   0.0000000  )
         2           Al  tau(   2) = (   0.5000000   0.5000000   0.0000000  )
         3           Al  tau(   3) = (   0.5000000   0.0000000   0.5000000  )
         4           Al  tau(   4) = (   0.0000000   0.5000000   0.5000000  )

     number of k points=  1140  Marzari-Vanderbilt smearing, width (Ry)=  0.0200

     Number of k-points >= 100: set verbosity='high' to print them.

     Initial potential from superposition of free atoms

     starting charge   11.99084, renormalised to   12.00000
     Starting wfcs are   16 randomized atomic wfcs
     Checking if some PAW data can be deallocated...

     Self-consistent Calculation

     iteration #  1     ecut=    50.00 Ry     beta= 0.10
     Davidson diagonalization with overlap
     ethr =  1.00E-02,  avg # of iterations =  3.7

     Threshold (ethr) on eigenvalues was too large:
     Diagonalizing with lowered threshold

     Davidson diagonalization with overlap
     ethr =  1.78E-04,  avg # of iterations =  5.0

     total energy              =    -158.01098073 Ry
     estimated scf accuracy    <       0.02227945 Ry

[...]

     iteration #  4     ecut=    50.00 Ry     beta= 0.10
     Davidson diagonalization with overlap
     c_bands:  1 eigenvalues not converged
     c_bands:  1 eigenvalues not converged
     ethr =  2.92E-07,  avg # of iterations =  7.0

[...]

     End of self-consistent calculation

     Number of k-points >= 100: set verbosity='high' to print the bands.

     the Fermi energy is     8.5587 ev

!    total energy              =    -158.00645658 Ry

     total all-electron energy =     -1942.577584 Ry
     estimated scf accuracy    <       0.00000011 Ry
     smearing contrib. (-TS)   =      -0.00017285 Ry
     internal energy E=F+TS    =    -158.00628373 Ry

     The total energy is F=E-TS. E is the sum of the following terms:
     one-electron contribution =      13.24726125 Ry
     hartree contribution      =       0.02676244 Ry
     xc contribution           =     -10.49501202 Ry
     ewald contribution        =     -22.05320864 Ry
     one-center paw contrib.   =    -138.73208675 Ry

     convergence has been achieved in   8 iterations

     Forces acting on atoms (cartesian axes, Ry/au):

     atom    1 type  1   force =     0.00000000    0.00000000    0.00000000
     atom    2 type  1   force =     0.00000000    0.00000000    0.00000000
     atom    3 type  1   force =     0.00000000    0.00000000    0.00000000
     atom    4 type  1   force =     0.00000000    0.00000000    0.00000000

     Total force =     0.000000     Total SCF correction =     0.000000

     Computing stress (Cartesian axis) and pressure

          total   stress  (Ry/bohr**3)                   (kbar)     P=       52.68
   0.00035811   0.00000000   0.00000000           52.68        0.00        0.00
   0.00000000   0.00035811   0.00000000            0.00       52.68        0.00
   0.00000000   0.00000000   0.00035811            0.00        0.00       52.68

     BFGS Geometry Optimization

     number of scf cycles    =   1
     number of bfgs steps    =   0

     enthalpy new            =    -158.0064565771 Ry

     new trust radius        =       0.0366625381 bohr
     new conv_thr            =       0.0000010000 Ry

     new unit-cell volume =    430.60937 a.u.^3 (    63.80972 Ang^3 )
     density =      2.80864 g/cm^3

CELL_PARAMETERS (alat=  7.48440000)
   1.008952762   0.000000000   0.000000000
   0.000000000   1.008952762   0.000000000
   0.000000000   0.000000000   1.008952762

ATOMIC_POSITIONS (crystal)
Al            0.0000000000        0.0000000000        0.0000000000
Al            0.5000000000        0.5000000000        0.0000000000
Al            0.5000000000        0.0000000000        0.5000000000
Al            0.0000000000        0.5000000000        0.5000000000

     Writing output data file /scratch/FmRfOkeMGJhFkJWp.save/
     NEW-OLD atomic charge density approx. for the potential
     extrapolated charge   12.31637, renormalised to   12.00000

[...]

     enthalpy old            =    -158.0064565771 Ry
     enthalpy new            =    -158.0095135939 Ry

     CASE: enthalpy_new < enthalpy_old

[...]

     number of scf cycles    =   3
     number of bfgs steps    =   2

     enthalpy old            =    -158.0095135939 Ry
     enthalpy new            =    -158.0107616381 Ry

     CASE: enthalpy_new < enthalpy_old

     new trust radius        =       0.0042009957 bohr
     new conv_thr            =       0.0000000100 Ry

     new unit-cell volume =    444.63535 a.u.^3 (    65.88816 Ang^3 )
     density =      2.72004 g/cm^3

[...]

ATOMIC_POSITIONS (crystal)
Al            0.0000000000        0.0000000000        0.0000000000
Al            0.5000000000        0.5000000000        0.0000000000
Al            0.5000000000        0.0000000000        0.5000000000
Al            0.0000000000        0.5000000000        0.5000000000

     Writing output data file /scratch/FmRfOkeMGJhFkJWp.save/
     NEW-OLD atomic charge density approx. for the potential
     extrapolated charge   12.03582, renormalised to   12.00000

[...]

     Threshold (ethr) on eigenvalues was too large:
     Diagonalizing with lowered threshold

     Davidson diagonalization with overlap
     ethr =  4.19E-09,  avg # of iterations =  4.8

[...]

     bfgs converged in   4 scf cycles and   3 bfgs steps
     (criteria: energy <  1.0E-04 Ry, force <  1.0E-03Ry/Bohr, cell <  5.0E-01kbar)

     End of BFGS Geometry Optimization

     Final enthalpy =    -158.0107734951 Ry

     File /scratch/FmRfOkeMGJhFkJWp.bfgs deleted, as requested
Begin final coordinates
     new unit-cell volume =    444.63535 a.u.^3 (    65.88816 Ang^3 )
     density =      2.72004 g/cm^3

CELL_PARAMETERS (alat=  7.48440000)
   1.019790604   0.000000000   0.000000000
   0.000000000   1.019790604   0.000000000
   0.000000000   0.000000000   1.019790604

ATOMIC_POSITIONS (crystal)
Al            0.0000000000        0.0000000000        0.0000000000
Al            0.5000000000        0.5000000000        0.0000000000
Al            0.5000000000        0.0000000000        0.5000000000
Al            0.0000000000        0.5000000000        0.5000000000
End final coordinates

     Writing output data file /scratch/FmRfOkeMGJhFkJWp.save/

     Final scf calculation at the relaxed structure.
     The G-vectors are recalculated for the final unit cell
     Results may differ from those at the preceding step.

     bravais-lattice index     =            0
     lattice parameter (alat)  =       7.4844  a.u.
     unit-cell volume          =     444.6354 (a.u.)^3
     number of atoms/cell      =            4
     number of atomic types    =            1
     number of electrons       =        12.00
     number of Kohn-Sham states=           10
     kinetic-energy cutoff     =      50.0000  Ry
     charge density cutoff     =     200.0000  Ry
     convergence threshold     =      1.0E-08
     mixing beta               =       0.1000
     number of iterations used =           10  plain     mixing
     Exchange-correlation= SLA PW PBX PBC
                           (   1   4   3   4   0   0   0)

     celldm(1)=   7.484400  celldm(2)=   0.000000  celldm(3)=   0.000000
     celldm(4)=   0.000000  celldm(5)=   0.000000  celldm(6)=   0.000000

     crystal axes: (cart. coord. in units of alat)
               a(1) = (   1.019791   0.000000   0.000000 )
               a(2) = (   0.000000   1.019791   0.000000 )
               a(3) = (   0.000000   0.000000   1.019791 )

     reciprocal axes: (cart. coord. in units 2 pi/alat)
               b(1) = (  0.980593  0.000000  0.000000 )
               b(2) = (  0.000000  0.980593  0.000000 )
               b(3) = (  0.000000  0.000000  0.980593 )

     PseudoPot. # 1 for Al read from file:
     /rds/homes/b/bxp912/pp/Al.pbe-nl-kjpaw_psl.1.0.0.UPF
     MD5 check sum: 339dbea23cf3ab9a065ad45c0f9085d7
     Pseudo is Projector augmented-wave + core cor, Zval =  3.0
     Generated using "atomic" code by A. Dal Corso v.5.1
     Shape of augmentation charge: PSQ
     Using radial grid of 1135 points,  4 beta functions with:
                l(1) =   0
                l(2) =   0
                l(3) =   1
                l(4) =   1
     Q(r) pseudized with 0 coefficients

     atomic species   valence    mass     pseudopotential
        Al             3.00    26.98200     Al( 1.00)

     48 Sym. Ops., with inversion, found

   Cartesian axes

     site n.     atom                  positions (alat units)
         1           Al  tau(   1) = (   0.0000000   0.0000000   0.0000000  )
         2           Al  tau(   2) = (   0.5098953   0.5098953   0.0000000  )
         3           Al  tau(   3) = (   0.5098953   0.0000000   0.5098953  )
         4           Al  tau(   4) = (   0.0000000   0.5098953   0.5098953  )

     number of k points=  1140  Marzari-Vanderbilt smearing, width (Ry)=  0.0200

     Number of k-points >= 100: set verbosity='high' to print them.

     Initial potential from superposition of free atoms

     starting charge   11.99084, renormalised to   12.00000
     Starting wfcs are   16 randomized atomic wfcs
     Checking if some PAW data can be deallocated...

     Self-consistent Calculation

[...]

     iteration #  4     ecut=    50.00 Ry     beta= 0.10
     Davidson diagonalization with overlap
     c_bands:  1 eigenvalues not converged
     ethr =  3.09E-07,  avg # of iterations =  5.3

[...]

     total energy              =    -158.01077939 Ry
     estimated scf accuracy    <       0.00000001 Ry

     iteration # 12     ecut=    50.00 Ry     beta= 0.10
     Davidson diagonalization with overlap
     ethr =  9.57E-11,  avg # of iterations =  1.0

     End of self-consistent calculation

     Number of k-points >= 100: set verbosity='high' to print the bands.

     the Fermi energy is     7.9326 ev

!    total energy              =    -158.01077938 Ry

     total all-electron energy =     -1942.581907 Ry
     estimated scf accuracy    <          9.0E-09 Ry
     smearing contrib. (-TS)   =      -0.00011729 Ry
     internal energy E=F+TS    =    -158.01066209 Ry

     The total energy is F=E-TS. E is the sum of the following terms:
     one-electron contribution =      12.66711676 Ry
     hartree contribution      =       0.02463775 Ry
     xc contribution           =     -10.36688318 Ry
     ewald contribution        =     -21.62523223 Ry
     one-center paw contrib.   =    -138.71030118 Ry

     convergence has been achieved in  12 iterations

     Forces acting on atoms (cartesian axes, Ry/au):

     atom    1 type  1   force =     0.00000000    0.00000000    0.00000000
     atom    2 type  1   force =     0.00000000    0.00000000    0.00000000
     atom    3 type  1   force =     0.00000000    0.00000000    0.00000000
     atom    4 type  1   force =     0.00000000    0.00000000    0.00000000

     Total force =     0.000000     Total SCF correction =     0.000000

     Computing stress (Cartesian axis) and pressure

          total   stress  (Ry/bohr**3)                   (kbar)     P=        0.13
   0.00000086   0.00000000   0.00000000            0.13        0.00        0.00
   0.00000000   0.00000086   0.00000000            0.00        0.13        0.00
   0.00000000   0.00000000   0.00000086            0.00        0.00        0.13

     Writing output data file /scratch/FmRfOkeMGJhFkJWp.save/

     General routines

     Parallel routines

   This run was terminated on:  18: 8:49  15May2022

   JOB DONE.